(set-info :smt-lib-version 2.6)
(set-logic UFLIA)
(set-info :source |
Generated by: Geoff Sutcliffe
Generated on: 2026-03-11
Generator: TPTPWorld
Application: Benchmarking automated theorem provers
Time limit: 120.0

These benchmarks are translations from the TPTP Library (Thousands of
Problems for Theorem Provers), see http://www.cs.miami.edu/~tptp/

The TPTP is maintained by Geoff Sutcliffe, and he contributed this
selection of benchmarks to SMT-LIB.  They were exported from the
v9.2.1 realease of TPTP.
|)
(set-info :category "industrial")
(set-info :status "unknown")
; SZS status Success
(declare-sort $$unsorted 0)
(declare-sort tptp.element 0)
(declare-fun tptp.data (tptp.element) Int)
(declare-fun tptp.next (tptp.element) tptp.element)
(declare-fun tptp.iselem (tptp.element) Bool)
(declare-fun tptp.a () tptp.element)
(assert (let ((_let_1 (tptp.next tptp.a))) (not (=> (and (forall ((X tptp.element) (Z Int)) (or (not (tptp.iselem X)) (not (= (tptp.data X) Z)) (< 0 Z))) (forall ((X tptp.element) (Y tptp.element)) (or (not (tptp.iselem X)) (not (tptp.iselem (tptp.next Y))) (not (= (tptp.next X) Y)) (< (tptp.data Y) (tptp.data X)))) (tptp.iselem tptp.a) (tptp.iselem _let_1) (tptp.iselem (tptp.next _let_1))) (<= 3 (tptp.data tptp.a))))))
(check-sat)
(exit)
